; Copyright (c) 2026 The RIINA Authors. All rights reserved.
; Auto-generated from 02_FORMAL/coq/domains/MalaysiaSCGTRM.v (24 validations)
; Generated by scripts/generate-full-stack.py
;
; Translation Validation for MalaysiaSCGTRM
; Layer 9: Verifies compiler backend preserves formal semantics.
; Each assertion checks source IR ≡ target code for a proven property.

(set-logic QF_LIA)
(set-option :produce-models true)

; IR node representation
(declare-sort IRNode 0)
(declare-sort TargetNode 0)

; gtrm_board_accountable: source semantics (matches Coq)
(declare-fun source_gtrm_board_accountable () Bool)
(declare-fun target_gtrm_board_accountable () Bool)
(assert (= source_gtrm_board_accountable target_gtrm_board_accountable))

; gtrm_risk_framework: source semantics (matches Coq)
(declare-fun source_gtrm_risk_framework () Bool)
(declare-fun target_gtrm_risk_framework () Bool)
(assert (= source_gtrm_risk_framework target_gtrm_risk_framework))

; gtrm_pentest_current: source semantics (matches Coq)
(declare-fun source_gtrm_pentest_current () Bool)
(declare-fun target_gtrm_pentest_current () Bool)
(assert (= source_gtrm_pentest_current target_gtrm_pentest_current))

; gtrm_ai_assessed: source semantics (matches Coq)
(declare-fun source_gtrm_ai_assessed () Bool)
(declare-fun target_gtrm_ai_assessed () Bool)
(assert (= source_gtrm_ai_assessed target_gtrm_ai_assessed))

; gtrm_vendor_compliant: source semantics (matches Coq)
(declare-fun source_gtrm_vendor_compliant () Bool)
(declare-fun target_gtrm_vendor_compliant () Bool)
(assert (= source_gtrm_vendor_compliant target_gtrm_vendor_compliant))

; gtrm_incident_ready: source semantics (matches Coq)
(declare-fun source_gtrm_incident_ready () Bool)
(declare-fun target_gtrm_incident_ready () Bool)
(assert (= source_gtrm_incident_ready target_gtrm_incident_ready))

; gtrm_data_protected: source semantics (matches Coq)
(declare-fun source_gtrm_data_protected () Bool)
(declare-fun target_gtrm_data_protected () Bool)
(assert (= source_gtrm_data_protected target_gtrm_data_protected))

; gtrm_fully_compliant: source semantics (matches Coq)
(declare-fun source_gtrm_fully_compliant () Bool)
(declare-fun target_gtrm_fully_compliant () Bool)
(assert (= source_gtrm_fully_compliant target_gtrm_fully_compliant))

; sc_incident_deadline: source semantics (matches Coq)
(declare-fun source_sc_incident_deadline () Bool)
(declare-fun target_sc_incident_deadline () Bool)
(assert (= source_sc_incident_deadline target_sc_incident_deadline))

; sc_incident_timely: source semantics (matches Coq)
(declare-fun source_sc_incident_timely () Bool)
(declare-fun target_sc_incident_timely () Bool)
(assert (= source_sc_incident_timely target_sc_incident_timely))

; ai_risk_managed: source semantics (matches Coq)
(declare-fun source_ai_risk_managed () Bool)
(declare-fun target_ai_risk_managed () Bool)
(assert (= source_ai_risk_managed target_ai_risk_managed))

; cm_cloud_risk_assessed: source semantics (matches Coq)
(declare-fun source_cm_cloud_risk_assessed () Bool)
(declare-fun target_cm_cloud_risk_assessed () Bool)
(assert (= source_cm_cloud_risk_assessed target_cm_cloud_risk_assessed))

; gtrm_req_1: translation preserves property (matches Coq: Theorem)
(declare-fun source_gtrm_req_1 () Bool)
(declare-fun target_gtrm_req_1 () Bool)
(assert (= source_gtrm_req_1 target_gtrm_req_1))

; gtrm_req_2: translation preserves property (matches Coq: Theorem)
(declare-fun source_gtrm_req_2 () Bool)
(declare-fun target_gtrm_req_2 () Bool)
(assert (= source_gtrm_req_2 target_gtrm_req_2))

; gtrm_req_3: translation preserves property (matches Coq: Theorem)
(declare-fun source_gtrm_req_3 () Bool)
(declare-fun target_gtrm_req_3 () Bool)
(assert (= source_gtrm_req_3 target_gtrm_req_3))

; gtrm_req_4: translation preserves property (matches Coq: Theorem)
(declare-fun source_gtrm_req_4 () Bool)
(declare-fun target_gtrm_req_4 () Bool)
(assert (= source_gtrm_req_4 target_gtrm_req_4))

; gtrm_req_5: translation preserves property (matches Coq: Theorem)
(declare-fun source_gtrm_req_5 () Bool)
(declare-fun target_gtrm_req_5 () Bool)
(assert (= source_gtrm_req_5 target_gtrm_req_5))

; gtrm_req_6: translation preserves property (matches Coq: Theorem)
(declare-fun source_gtrm_req_6 () Bool)
(declare-fun target_gtrm_req_6 () Bool)
(assert (= source_gtrm_req_6 target_gtrm_req_6))

; gtrm_req_7: translation preserves property (matches Coq: Theorem)
(declare-fun source_gtrm_req_7 () Bool)
(declare-fun target_gtrm_req_7 () Bool)
(assert (= source_gtrm_req_7 target_gtrm_req_7))

; gtrm_composition: translation preserves property (matches Coq: Theorem)
(declare-fun source_gtrm_composition () Bool)
(declare-fun target_gtrm_composition () Bool)
(assert (= source_gtrm_composition target_gtrm_composition))

; cm_entity_coverage: translation preserves property (matches Coq: Theorem)
(declare-fun source_cm_entity_coverage () Bool)
(declare-fun target_cm_entity_coverage () Bool)
(assert (= source_cm_entity_coverage target_cm_entity_coverage))

; pentest_expired: translation preserves property (matches Coq: Theorem)
(declare-fun source_pentest_expired () Bool)
(declare-fun target_pentest_expired () Bool)
(assert (= source_pentest_expired target_pentest_expired))

; pentest_recently_done: translation preserves property (matches Coq: Theorem)
(declare-fun source_pentest_recently_done () Bool)
(declare-fun target_pentest_recently_done () Bool)
(assert (= source_pentest_recently_done target_pentest_recently_done))

; gtrm_full_implies_board: translation preserves property (matches Coq: Theorem)
(declare-fun source_gtrm_full_implies_board () Bool)
(declare-fun target_gtrm_full_implies_board () Bool)
(assert (= source_gtrm_full_implies_board target_gtrm_full_implies_board))

; gtrm_full_implies_risk: translation preserves property (matches Coq: Theorem)
(declare-fun source_gtrm_full_implies_risk () Bool)
(declare-fun target_gtrm_full_implies_risk () Bool)
(assert (= source_gtrm_full_implies_risk target_gtrm_full_implies_risk))

; gtrm_full_implies_pentest: translation preserves property (matches Coq: Theorem)
(declare-fun source_gtrm_full_implies_pentest () Bool)
(declare-fun target_gtrm_full_implies_pentest () Bool)
(assert (= source_gtrm_full_implies_pentest target_gtrm_full_implies_pentest))

; gtrm_full_implies_ai: translation preserves property (matches Coq: Theorem)
(declare-fun source_gtrm_full_implies_ai () Bool)
(declare-fun target_gtrm_full_implies_ai () Bool)
(assert (= source_gtrm_full_implies_ai target_gtrm_full_implies_ai))

; gtrm_full_implies_vendor: translation preserves property (matches Coq: Theorem)
(declare-fun source_gtrm_full_implies_vendor () Bool)
(declare-fun target_gtrm_full_implies_vendor () Bool)
(assert (= source_gtrm_full_implies_vendor target_gtrm_full_implies_vendor))

; gtrm_full_implies_incident: translation preserves property (matches Coq: Theorem)
(declare-fun source_gtrm_full_implies_incident () Bool)
(declare-fun target_gtrm_full_implies_incident () Bool)
(assert (= source_gtrm_full_implies_incident target_gtrm_full_implies_incident))

; gtrm_full_implies_data: translation preserves property (matches Coq: Theorem)
(declare-fun source_gtrm_full_implies_data () Bool)
(declare-fun target_gtrm_full_implies_data () Bool)
(assert (= source_gtrm_full_implies_data target_gtrm_full_implies_data))

; sc_incident_reporting: translation preserves property (matches Coq: Theorem)
(declare-fun source_sc_incident_reporting () Bool)
(declare-fun target_sc_incident_reporting () Bool)
(assert (= source_sc_incident_reporting target_sc_incident_reporting))

; sc_incident_late: translation preserves property (matches Coq: Theorem)
(declare-fun source_sc_incident_late () Bool)
(declare-fun target_sc_incident_late () Bool)
(assert (= source_sc_incident_late target_sc_incident_late))

; ai_model_risk_complete: translation preserves property (matches Coq: Theorem)
(declare-fun source_ai_model_risk_complete () Bool)
(declare-fun target_ai_model_risk_complete () Bool)
(assert (= source_ai_model_risk_complete target_ai_model_risk_complete))

; ai_not_validated_not_managed: translation preserves property (matches Coq: Theorem)
(declare-fun source_ai_not_validated_not_managed () Bool)
(declare-fun target_ai_not_validated_not_managed () Bool)
(assert (= source_ai_not_validated_not_managed target_ai_not_validated_not_managed))

; cm_cloud_fully_assessed: translation preserves property (matches Coq: Theorem)
(declare-fun source_cm_cloud_fully_assessed () Bool)
(declare-fun target_cm_cloud_fully_assessed () Bool)
(assert (= source_cm_cloud_fully_assessed target_cm_cloud_fully_assessed))

; cm_cloud_missing_exit_strategy: translation preserves property (matches Coq: Theorem)
(declare-fun source_cm_cloud_missing_exit_strategy () Bool)
(declare-fun target_cm_cloud_missing_exit_strategy () Bool)
(assert (= source_cm_cloud_missing_exit_strategy target_cm_cloud_missing_exit_strategy))

; Verify all translation validations are satisfiable
(check-sat)
(exit)
